decision_x1=[0,2];
decision_x2=[0,2];
decision_x3=[0,2];
decision_x4=[0,2];
decision_x5=[0,2];
decision_x6=[0,2];
decision_x7=[0,2];
decision_x8=[0,2];
decision_x9=[0,2];
decision_x10=[0,2];
decision_x11=[0,2];
decision_x12=[0,2];
decision_x13=[0,2];
decision_x14=[0,2];
decision_x15=[0,2];
random_y1=[0,2];
random_y2=[0,2];
random_y3=[0,2];
constraint_x3_x2=[
0,0,7.3|
0,1,8.2|
0,2,1.2|
1,0,2|
1,1,8.6|
1,2,7.6|
2,0,5|
2,1,2.5|
2,2,3.9|
];
constraint_x4_x1=[
0,0,6.8|
0,1,9.3|
0,2,3.9|
1,0,6|
1,1,3.8|
1,2,3.2|
2,0,4.5|
2,1,7.5|
2,2,9.1|
];
constraint_x4_x2=[
0,0,2.6|
0,1,2.1|
0,2,6.7|
1,0,0.21|
1,1,7.4|
1,2,5.8|
2,0,7.3|
2,1,3.6|
2,2,2.8|
];
constraint_x4_x3=[
0,0,2.5|
0,1,8.2|
0,2,4.1|
1,0,2.7|
1,1,1.3|
1,2,8.7|
2,0,3.8|
2,1,8.4|
2,2,5.1|
];
constraint_x5_x1=[
0,0,8.1|
0,1,0.88|
0,2,4.9|
1,0,7.3|
1,1,4.7|
1,2,4.3|
2,0,2.9|
2,1,5.1|
2,2,6.3|
];
constraint_x5_x3=[
0,0,6.9|
0,1,4.2|
0,2,1.3|
1,0,9.5|
1,1,2.3|
1,2,0.033|
2,0,4.9|
2,1,9.5|
2,2,5.5|
];
constraint_x6_x2=[
0,0,9.6|
0,1,2.4|
0,2,2.2|
1,0,5.3|
1,1,0.5|
1,2,5|
2,0,2.5|
2,1,9.9|
2,2,0.8|
];
constraint_x7_x3=[
0,0,6|
0,1,2.3|
0,2,8.4|
1,0,1.4|
1,1,1|
1,2,1.7|
2,0,0.084|
2,1,7.8|
2,2,1.1|
];
constraint_x7_x6=[
0,0,9.8|
0,1,1.5|
0,2,7.1|
1,0,6|
1,1,3.6|
1,2,4.1|
2,0,8.8|
2,1,5.4|
2,2,2.1|
];
constraint_x8_x1=[
0,0,7.3|
0,1,2.4|
0,2,5.7|
1,0,3.3|
1,1,9.3|
1,2,9.3|
2,0,8.2|
2,1,4|
2,2,3.9|
];
constraint_x8_x2=[
0,0,4.4|
0,1,5.4|
0,2,2.2|
1,0,9|
1,1,4|
1,2,5.7|
2,0,1|
2,1,8.9|
2,2,8.5|
];
constraint_x8_x4=[
0,0,8.5|
0,1,9.5|
0,2,2|
1,0,2.8|
1,1,1.5|
1,2,6|
2,0,6.2|
2,1,8|
2,2,2.9|
];
constraint_x8_x5=[
0,0,0.56|
0,1,4.2|
0,2,0.06|
1,0,2.6|
1,1,1.7|
1,2,5.3|
2,0,0.24|
2,1,9.1|
2,2,5.2|
];
constraint_x8_x6=[
0,0,0.28|
0,1,2.3|
0,2,9.4|
1,0,9.8|
1,1,7.4|
1,2,5.7|
2,0,0.73|
2,1,0.51|
2,2,5.4|
];
constraint_x9_x3=[
0,0,3.5|
0,1,6.6|
0,2,9.6|
1,0,0.84|
1,1,4.6|
1,2,6.8|
2,0,0.57|
2,1,2.4|
2,2,6.4|
];
constraint_x9_x4=[
0,0,6.5|
0,1,7.3|
0,2,9.7|
1,0,0.4|
1,1,9.3|
1,2,3.7|
2,0,3.2|
2,1,6.1|
2,2,3.2|
];
constraint_x10_x1=[
0,0,6.8|
0,1,6.9|
0,2,1.7|
1,0,9.6|
1,1,1.3|
1,2,6.2|
2,0,9.9|
2,1,9.4|
2,2,5.4|
];
constraint_x10_x2=[
0,0,0.9|
0,1,3.9|
0,2,2.4|
1,0,3.5|
1,1,3.7|
1,2,1.6|
2,0,2.7|
2,1,2.8|
2,2,0.89|
];
constraint_x10_x3=[
0,0,0.81|
0,1,1.9|
0,2,3.8|
1,0,5.3|
1,1,1.3|
1,2,1.5|
2,0,2|
2,1,1.3|
2,2,8.6|
];
constraint_x10_x4=[
0,0,3.4|
0,1,9.4|
0,2,7.1|
1,0,0.92|
1,1,2.3|
1,2,0.71|
2,0,8.7|
2,1,3.5|
2,2,8.8|
];
constraint_x10_x5=[
0,0,0.53|
0,1,8.6|
0,2,8.1|
1,0,9.8|
1,1,4.3|
1,2,1.9|
2,0,6.3|
2,1,1.8|
2,2,8.3|
];
constraint_x10_x6=[
0,0,7|
0,1,0.46|
0,2,4.4|
1,0,2.1|
1,1,6.9|
1,2,2.1|
2,0,9.6|
2,1,9.9|
2,2,1.2|
];
constraint_x10_x7=[
0,0,8.4|
0,1,8.1|
0,2,7.7|
1,0,1.1|
1,1,8.3|
1,2,0.85|
2,0,7.2|
2,1,6|
2,2,3.1|
];
constraint_x11_x1=[
0,0,0.91|
0,1,1.4|
0,2,3|
1,0,3.2|
1,1,3.4|
1,2,3|
2,0,2.7|
2,1,9.5|
2,2,5.8|
];
constraint_x11_x2=[
0,0,5.7|
0,1,0.6|
0,2,2.1|
1,0,9.6|
1,1,8.7|
1,2,3.3|
2,0,8.4|
2,1,8.1|
2,2,9.5|
];
constraint_x11_x4=[
0,0,6.2|
0,1,3.8|
0,2,0.2|
1,0,3|
1,1,6.8|
1,2,0.65|
2,0,9.4|
2,1,0.89|
2,2,3.7|
];
constraint_x11_x6=[
0,0,8.1|
0,1,6.2|
0,2,1.1|
1,0,4.7|
1,1,1.4|
1,2,2|
2,0,1.4|
2,1,7.6|
2,2,1.8|
];
constraint_x11_x8=[
0,0,6.5|
0,1,3.4|
0,2,0.8|
1,0,8.4|
1,1,2.1|
1,2,0.28|
2,0,4.8|
2,1,8.7|
2,2,3.5|
];
constraint_x11_x9=[
0,0,5.8|
0,1,1.6|
0,2,9.1|
1,0,6.5|
1,1,8.6|
1,2,8.9|
2,0,6.1|
2,1,1.7|
2,2,1.7|
];
constraint_x12_x4=[
0,0,8.4|
0,1,2.6|
0,2,9.8|
1,0,0.47|
1,1,3.7|
1,2,3.4|
2,0,7.3|
2,1,2.5|
2,2,2|
];
constraint_x12_x7=[
0,0,4|
0,1,3.8|
0,2,0.072|
1,0,9.8|
1,1,6.1|
1,2,5|
2,0,8.5|
2,1,3|
2,2,9|
];
constraint_x12_x8=[
0,0,1.9|
0,1,7.5|
0,2,3.9|
1,0,0.34|
1,1,2.4|
1,2,0.23|
2,0,4.2|
2,1,5.4|
2,2,9.6|
];
constraint_x12_x9=[
0,0,6.4|
0,1,5.1|
0,2,0.78|
1,0,8.5|
1,1,1.3|
1,2,3.4|
2,0,5.1|
2,1,5.5|
2,2,1.7|
];
constraint_x12_x10=[
0,0,0.32|
0,1,4.6|
0,2,4.7|
1,0,4.4|
1,1,6.8|
1,2,2.3|
2,0,4.9|
2,1,9.2|
2,2,5.1|
];
constraint_x12_x11=[
0,0,2.6|
0,1,7.7|
0,2,3.7|
1,0,2.6|
1,1,4.3|
1,2,8.8|
2,0,4.4|
2,1,3.8|
2,2,1.1|
];
constraint_x13_x1=[
0,0,9.4|
0,1,4.8|
0,2,6.6|
1,0,2.6|
1,1,5.1|
1,2,6.5|
2,0,2.8|
2,1,1.2|
2,2,6.8|
];
constraint_x13_x2=[
0,0,7.1|
0,1,9|
0,2,2.9|
1,0,5.5|
1,1,3.7|
1,2,5.8|
2,0,7.2|
2,1,0.56|
2,2,9.6|
];
constraint_x13_x5=[
0,0,8.5|
0,1,0.41|
0,2,7.4|
1,0,2|
1,1,9.9|
1,2,5.3|
2,0,5.9|
2,1,6.2|
2,2,6.3|
];
constraint_x13_x6=[
0,0,3.1|
0,1,1.4|
0,2,2|
1,0,0.71|
1,1,6.4|
1,2,6.5|
2,0,9|
2,1,8.5|
2,2,6.9|
];
constraint_x13_x7=[
0,0,5.3|
0,1,6.2|
0,2,9.3|
1,0,6.4|
1,1,9.9|
1,2,1.7|
2,0,2.3|
2,1,1|
2,2,1.9|
];
constraint_x13_x8=[
0,0,6.2|
0,1,4|
0,2,2.1|
1,0,4.7|
1,1,6|
1,2,2.1|
2,0,6.6|
2,1,5.1|
2,2,7.6|
];
constraint_x13_x9=[
0,0,3.3|
0,1,8.2|
0,2,6.9|
1,0,1.1|
1,1,4.4|
1,2,6.4|
2,0,8|
2,1,3.4|
2,2,0.33|
];
constraint_x13_x10=[
0,0,8.1|
0,1,7|
0,2,5.1|
1,0,5.5|
1,1,3|
1,2,4.8|
2,0,4.1|
2,1,9.2|
2,2,0.55|
];
constraint_x13_x11=[
0,0,3.3|
0,1,0.059|
0,2,0.18|
1,0,5.7|
1,1,5|
1,2,6|
2,0,8.5|
2,1,9.6|
2,2,5.1|
];
constraint_x13_x12=[
0,0,8.8|
0,1,0.97|
0,2,3.6|
1,0,9.2|
1,1,5|
1,2,4.6|
2,0,0.036|
2,1,0.93|
2,2,4.8|
];
constraint_x14_x4=[
0,0,0.52|
0,1,4.6|
0,2,0.74|
1,0,2.9|
1,1,2.9|
1,2,1.2|
2,0,9.6|
2,1,8.4|
2,2,4.3|
];
constraint_x14_x5=[
0,0,4.9|
0,1,6.3|
0,2,7.6|
1,0,4.5|
1,1,0.99|
1,2,6|
2,0,0.63|
2,1,5.6|
2,2,0.82|
];
constraint_x14_x8=[
0,0,1.6|
0,1,9.6|
0,2,2.7|
1,0,1.8|
1,1,8.9|
1,2,2.7|
2,0,7.3|
2,1,3.4|
2,2,6.9|
];
constraint_x14_x10=[
0,0,0.82|
0,1,7.1|
0,2,9.9|
1,0,0.9|
1,1,1.1|
1,2,3.9|
2,0,7.9|
2,1,8.1|
2,2,4.6|
];
constraint_x15_x1=[
0,0,5.1|
0,1,6.8|
0,2,2.4|
1,0,9.7|
1,1,5.3|
1,2,7|
2,0,0.68|
2,1,6.2|
2,2,5.6|
];
constraint_x15_x2=[
0,0,4.6|
0,1,2.3|
0,2,1.8|
1,0,6.3|
1,1,5.3|
1,2,9.3|
2,0,4.7|
2,1,7.8|
2,2,10|
];
constraint_x15_x9=[
0,0,2.5|
0,1,1.3|
0,2,2.6|
1,0,10|
1,1,0.69|
1,2,9.9|
2,0,6.7|
2,1,5|
2,2,1.7|
];
constraint_x15_x12=[
0,0,9.3|
0,1,6.2|
0,2,6.5|
1,0,1.4|
1,1,9.1|
1,2,9.1|
2,0,6.8|
2,1,3.6|
2,2,1.9|
];
constraint_x1_y1=[
0,0,4.6|
0,1,6.9|
0,2,6|
1,0,4|
1,1,3.7|
1,2,5|
2,0,1.5|
2,1,6.8|
2,2,4.8|
];
constraint_x2_y2=[
0,0,0.97|
0,1,8.6|
0,2,7.3|
1,0,5.2|
1,1,5.1|
1,2,1.4|
2,0,1.2|
2,1,0.44|
2,2,3.7|
];
constraint_x3_y3=[
0,0,6.8|
0,1,3.1|
0,2,3.8|
1,0,1.2|
1,1,3.6|
1,2,6.1|
2,0,5.2|
2,1,4.5|
2,2,0.9|
];
initial_distribution_y1=[0.46,0.47,0.069];
initial_distribution_y2=[0.054,0.46,0.48];
initial_distribution_y3=[0.59,0.22,0.18];
transition_y1=[
0.37,0.22,0.41|
0.14,0.82,0.038|
0.36,0.29,0.34|
];
transition_y2=[
0.3,0.44,0.26|
0.26,0.14,0.61|
0.34,0.41,0.25|
];
transition_y3=[
0.88,0.03,0.093|
0.31,0.16,0.53|
0.1,0.27,0.63|
];
